
mapping with 16 threads...

 0:00:01.19 Mapping INCOV029-AC.extracted.fq.gz to NUC reference...

 0:08:38.40 Generating binary hit matrix.
0:08:38.43 Loading /labs/khatrilab/solomonb/covid/isb/optitype/INCOV029-AC_1.bam started. Number of HLA reads loaded (updated every thousand):
1K...2K...3K...4K...5K...6K...7K...8K...9K...10K...11K...12K...13K...14K...15K...16K...17K...18K...19K...20K...21K...22K...23K...24K...25K...26K...27K...28K...29K...30K...31K...32K...33K...34K...35K...36K...37K...38K...39K...40K...41K...42K...43K...44K...45K...46K...47K...48K...49K...50K...51K...52K...53K...54K...55K...56K...57K...58K...59K...60K...61K...62K...63K...64K...65K...66K...67K...68K...69K...70K...71K...72K...73K...74K...75K...76K...77K...78K...79K...80K...81K...82K...83K...84K...85K...86K...87K...88K...89K...90K...91K...92K...93K...94K...95K...96K...97K...98K...99K...100K...101K...102K...103K...104K...105K...106K...107K...108K...109K...110K...111K...112K...113K...114K...115K...116K...117K...118K...119K...120K...121K...122K...123K...124K...125K...126K...127K...128K...129K...130K...131K...132K...133K...134K...135K...136K...137K...138K...139K...140K...141K...142K...143K...144K...145K...146K...147K...148K...149K...150K...151K...152K...153K...154K...155K...156K...157K...
 0:09:45.16 157495 reads loaded. Creating dataframe...
0:25:57.07 Dataframes created. Shape: 157495 x 7339, hits: 58883821 (59044551), sparsity: 1 in 19.58

 0:27:00.87 temporary pruning of identical rows and columns

 0:27:06.72 Size of mtx with unique rows and columns: (2582, 1670)
0:27:06.72 determining minimal set of non-overshadowed alleles

 0:27:32.72 Keeping only the minimal number of required alleles (746,)

 0:27:32.88 Creating compact model...

starting ilp solver with 1 threads...

 0:29:02.57 Initializing OptiType model...
GLPSOL: GLPK LP/MIP Solver, v4.57
Parameter(s) specified in the command line:
 --write /tmp/tmptdHd3g.glpk.raw --wglp /tmp/tmp7KDc1H.glpk.glp --cpxlp /tmp/tmpMW11Ul.pyomo.lp
Reading problem data from '/tmp/tmpMW11Ul.pyomo.lp'...
/tmp/tmpMW11Ul.pyomo.lp:132135: warning: lower bound of variable 'x7589' redefined
/tmp/tmpMW11Ul.pyomo.lp:132135: warning: upper bound of variable 'x7589' redefined
7588 rows, 4536 columns, 101039 non-zeros
2640 integer variables, all of which are binary
134775 lines were read
Writing problem data to '/tmp/tmp7KDc1H.glpk.glp'...
126438 lines were written
GLPK Integer Optimizer, v4.57
7588 rows, 4536 columns, 101039 non-zeros
2640 integer variables, all of which are binary
Preprocessing...
1703 hidden covering inequaliti(es) were detected
7581 rows, 4533 columns, 101028 non-zeros
2638 integer variables, all of which are binary
Scaling...
 A: min|aij| =  1.000e+00  max|aij| =  5.000e+00  ratio =  5.000e+00
Problem data seem to be well scaled
Constructing initial basis...
Size of triangular part is 7581
Solving LP relaxation...
GLPK Simplex Optimizer, v4.57
7581 rows, 4533 columns, 101028 non-zeros
      0: obj =  -0.000000000e+00 inf =   3.000e+00 (3)
      3: obj =  -0.000000000e+00 inf =   0.000e+00 (0)
*   500: obj =   1.207213900e+05 inf =   1.470e-15 (1759) 1
*  1000: obj =   1.362557540e+05 inf =   1.699e-14 (1462) 1
*  1500: obj =   1.367995720e+05 inf =   2.054e-14 (1258)
*  2000: obj =   1.370764330e+05 inf =   2.398e-14 (1084)
*  2500: obj =   1.372933780e+05 inf =   3.175e-14 (893)
*  3000: obj =   1.377873040e+05 inf =   7.738e-14 (396)
*  3397: obj =   1.380142120e+05 inf =   0.000e+00 (0)
OPTIMAL LP SOLUTION FOUND
Integer optimization begins...
+  3397: mip =     not found yet <=              +inf        (1; 0)
+  3397: >>>>>   1.380142120e+05 <=   1.380142120e+05   0.0% (1; 0)
+  3397: mip =   1.380142120e+05 <=     tree is empty   0.0% (0; 1)
INTEGER OPTIMAL SOLUTION FOUND
Time used:   0.9 secs
Memory used: 20.7 Mb (21707728 bytes)
Writing MIP solution to '/tmp/tmptdHd3g.glpk.raw'...
12126 lines were written

 0:29:14.54 Result dataframe has been constructed...
